NAME          
ROWS
 N  OBJ
 L  c1
 L  c2
 L  c3
COLUMNS
    MARKER    'MARKER'                 'INTORG'
    x[1]      c1        355
    x[1]      c2        450
    x[1]      c3        262
    x[1]      OBJ       -621
    x[2]      c1        780
    x[2]      c2        229
    x[2]      c3        676
    x[2]      OBJ       -931
    x[3]      c1        761
    x[3]      c2        692
    x[3]      c3        534
    x[3]      OBJ       -90
    x[4]      c1        475
    x[4]      c2        336
    x[4]      c3        904
    x[4]      OBJ       -795
    x[5]      c1        723
    x[5]      c2        275
    x[5]      c3        867
    x[5]      OBJ       -629
    x[6]      c1        210
    x[6]      c2        426
    x[6]      c3        690
    x[6]      OBJ       -610
    x[7]      c1        284
    x[7]      c2        781
    x[7]      c3        946
    x[7]      OBJ       -99
    x[8]      c1        353
    x[8]      c2        634
    x[8]      c3        97
    x[8]      OBJ       -884
    x[9]      c1        938
    x[9]      c2        431
    x[9]      c3        92
    x[9]      OBJ       -188
    x[10]     c1        674
    x[10]     c2        733
    x[10]     c3        37
    x[10]     OBJ       -661
    x[11]     c1        336
    x[11]     c2        568
    x[11]     c3        752
    x[11]     OBJ       -700
    x[12]     c1        203
    x[12]     c2        178
    x[12]     c3        299
    x[12]     OBJ       -898
    x[13]     c1        950
    x[13]     c2        572
    x[13]     c3        474
    x[13]     OBJ       -201
    x[14]     c1        269
    x[14]     c2        935
    x[14]     c3        585
    x[14]     OBJ       -821
    x[15]     c1        232
    x[15]     c2        598
    x[15]     c3        160
    x[15]     OBJ       -377
    x[16]     c1        829
    x[16]     c2        930
    x[16]     c3        572
    x[16]     OBJ       -942
    x[17]     c1        931
    x[17]     c2        677
    x[17]     c3        510
    x[17]     OBJ       -726
    x[18]     c1        370
    x[18]     c2        406
    x[18]     c3        625
    x[18]     OBJ       -898
    x[19]     c1        278
    x[19]     c2        874
    x[19]     c3        822
    x[19]     OBJ       -129
    x[20]     c1        219
    x[20]     c2        261
    x[20]     c3        942
    x[20]     OBJ       -450
    x[21]     c1        929
    x[21]     c2        947
    x[21]     c3        307
    x[21]     OBJ       -294
    x[22]     c1        949
    x[22]     c2        853
    x[22]     c3        699
    x[22]     OBJ       -910
    x[23]     c1        500
    x[23]     c2        320
    x[23]     c3        306
    x[23]     OBJ       -458
    x[24]     c1        280
    x[24]     c2        174
    x[24]     c3        827
    x[24]     OBJ       -74
    x[25]     c1        836
    x[25]     c2        431
    x[25]     c3        957
    x[25]     OBJ       -684
    x[26]     c1        593
    x[26]     c2        293
    x[26]     c3        848
    x[26]     OBJ       -321
    x[27]     c1        691
    x[27]     c2        427
    x[27]     c3        124
    x[27]     OBJ       -853
    x[28]     c1        108
    x[28]     c2        792
    x[28]     c3        783
    x[28]     OBJ       -539
    x[29]     c1        177
    x[29]     c2        311
    x[29]     c3        451
    x[29]     OBJ       -618
    x[30]     c1        842
    x[30]     c2        306
    x[30]     c3        532
    x[30]     OBJ       -587
    x[31]     c1        949
    x[31]     c2        792
    x[31]     c3        332
    x[31]     OBJ       -32
    x[32]     c1        8
    x[32]     c2        647
    x[32]     c3        240
    x[32]     OBJ       -474
    x[33]     c1        13
    x[33]     c2        300
    x[33]     c3        78
    x[33]     OBJ       -687
    x[34]     c1        174
    x[34]     c2        532
    x[34]     c3        44
    x[34]     OBJ       -497
    x[35]     c1        223
    x[35]     c2        319
    x[35]     c3        451
    x[35]     OBJ       -743
RHS
    rhs       c1        8721
    rhs       c2        9215
    rhs       c3        8912
RANGES
BOUNDS
 BV bounds    x[1]
 BV bounds    x[2]
 BV bounds    x[3]
 BV bounds    x[4]
 BV bounds    x[5]
 BV bounds    x[6]
 BV bounds    x[7]
 BV bounds    x[8]
 BV bounds    x[9]
 BV bounds    x[10]
 BV bounds    x[11]
 BV bounds    x[12]
 BV bounds    x[13]
 BV bounds    x[14]
 BV bounds    x[15]
 BV bounds    x[16]
 BV bounds    x[17]
 BV bounds    x[18]
 BV bounds    x[19]
 BV bounds    x[20]
 BV bounds    x[21]
 BV bounds    x[22]
 BV bounds    x[23]
 BV bounds    x[24]
 BV bounds    x[25]
 BV bounds    x[26]
 BV bounds    x[27]
 BV bounds    x[28]
 BV bounds    x[29]
 BV bounds    x[30]
 BV bounds    x[31]
 BV bounds    x[32]
 BV bounds    x[33]
 BV bounds    x[34]
 BV bounds    x[35]
ENDATA
